784 1568
1 2 1
1 29 4
2 3 1
2 30 2
3 4 4
3 31 4
4 5 5
4 32 3
5 6 4
5 33 1
6 7 4
6 34 3
7 8 4
7 35 1
8 9 3
8 36 5
9 10 3
9 37 2
10 11 5
10 38 5
11 12 1
11 39 4
12 13 5
12 40 4
13 14 5
13 41 3
14 15 5
14 42 4
15 16 2
15 43 2
16 17 1
16 44 1
17 18 2
17 45 3
18 19 2
18 46 1
19 20 4
19 47 4
20 21 4
20 48 2
21 22 1
21 49 2
22 23 3
22 50 1
23 24 3
23 51 1
24 25 5
24 52 3
25 26 3
25 53 4
26 27 2
26 54 1
27 28 1
27 55 2
28 56 1
29 30 3
29 57 2
30 31 4
30 58 2
31 32 5
31 59 4
32 33 4
32 60 2
33 34 5
33 61 4
34 35 5
34 62 2
35 36 1
35 63 3
36 37 5
36 64 4
37 38 4
37 65 5
38 39 5
38 66 4
39 40 4
39 67 1
40 41 5
40 68 5
41 42 1
41 69 2
42 43 4
42 70 4
43 44 2
43 71 2
44 45 5
44 72 1
45 46 1
45 73 3
46 47 5
46 74 5
47 48 2
47 75 3
48 49 1
48 76 5
49 50 2
49 77 3
50 51 1
50 78 5
51 52 4
51 79 1
52 53 3
52 80 1
53 54 4
53 81 2
54 55 2
54 82 4
55 56 4
55 83 4
56 84 5
57 58 1
57 85 1
58 59 2
58 86 2
59 60 1
59 87 5
60 61 4
60 88 2
61 62 1
61 89 1
62 63 3
62 90 1
63 64 1
63 91 2
64 65 3
64 92 5
65 66 3
65 93 3
66 67 1
66 94 4
67 68 2
67 95 3
68 69 5
68 96 5
69 70 1
69 97 2
70 71 2
70 98 4
71 72 2
71 99 3
72 73 2
72 100 3
73 74 5
73 101 4
74 75 3
74 102 1
75 76 4
75 103 3
76 77 2
76 104 5
77 78 4
77 105 2
78 79 1
78 106 4
79 80 5
79 107 1
80 81 1
80 108 5
81 82 5
81 109 4
82 83 3
82 110 4
83 84 4
83 111 4
84 112 4
85 86 1
85 113 1
86 87 4
86 114 5
87 88 2
87 115 4
88 89 5
88 116 1
89 90 1
89 117 4
90 91 1
90 118 5
91 92 3
91 119 1
92 93 2
92 120 3
93 94 2
93 121 5
94 95 4
94 122 1
95 96 1
95 123 3
96 97 5
96 124 5
97 98 1
97 125 1
98 99 1
98 126 2
99 100 5
99 127 5
100 101 1
100 128 3
101 102 2
101 129 3
102 103 3
102 130 5
103 104 5
103 131 5
104 105 3
104 132 2
105 106 3
105 133 4
106 107 4
106 134 1
107 108 5
107 135 4
108 109 1
108 136 2
109 110 3
109 137 5
110 111 1
110 138 3
111 112 3
111 139 1
112 140 2
113 114 3
113 141 2
114 115 5
114 142 5
115 116 1
115 143 5
116 117 2
116 144 1
117 118 4
117 145 3
118 119 4
118 146 4
119 120 1
119 147 3
120 121 1
120 148 1
121 122 1
121 149 4
122 123 1
122 150 1
123 124 3
123 151 3
124 125 3
124 152 5
125 126 5
125 153 4
126 127 3
126 154 5
127 128 5
127 155 3
128 129 4
128 156 2
129 130 5
129 157 2
130 131 1
130 158 5
131 132 1
131 159 4
132 133 3
132 160 5
133 134 5
133 161 4
134 135 1
134 162 1
135 136 3
135 163 1
136 137 4
136 164 4
137 138 3
137 165 3
138 139 4
138 166 4
139 140 1
139 167 4
140 168 4
141 142 4
141 169 4
142 143 5
142 170 5
143 144 4
143 171 2
144 145 1
144 172 5
145 146 4
145 173 3
146 147 2
146 174 5
147 148 3
147 175 4
148 149 2
148 176 3
149 150 4
149 177 5
150 151 3
150 178 3
151 152 4
151 179 4
152 153 3
152 180 3
153 154 1
153 181 1
154 155 1
154 182 1
155 156 3
155 183 4
156 157 3
156 184 2
157 158 4
157 185 3
158 159 2
158 186 2
159 160 5
159 187 1
160 161 4
160 188 5
161 162 2
161 189 5
162 163 1
162 190 4
163 164 3
163 191 2
164 165 3
164 192 1
165 166 3
165 193 3
166 167 1
166 194 3
167 168 4
167 195 1
168 196 1
169 170 3
169 197 1
170 171 4
170 198 4
171 172 3
171 199 2
172 173 3
172 200 4
173 174 4
173 201 3
174 175 2
174 202 4
175 176 3
175 203 3
176 177 1
176 204 2
177 178 5
177 205 2
178 179 4
178 206 2
179 180 5
179 207 5
180 181 2
180 208 2
181 182 2
181 209 1
182 183 1
182 210 3
183 184 4
183 211 4
184 185 3
184 212 4
185 186 3
185 213 1
186 187 4
186 214 1
187 188 1
187 215 4
188 189 5
188 216 3
189 190 5
189 217 5
190 191 5
190 218 1
191 192 4
191 219 2
192 193 2
192 220 2
193 194 1
193 221 5
194 195 4
194 222 1
195 196 3
195 223 5
196 224 2
197 198 1
197 225 5
198 199 4
198 226 3
199 200 3
199 227 5
200 201 1
200 228 2
201 202 5
201 229 2
202 203 3
202 230 4
203 204 1
203 231 5
204 205 1
204 232 3
205 206 3
205 233 3
206 207 2
206 234 4
207 208 1
207 235 1
208 209 3
208 236 3
209 210 4
209 237 2
210 211 4
210 238 5
211 212 5
211 239 5
212 213 1
212 240 3
213 214 5
213 241 1
214 215 4
214 242 1
215 216 3
215 243 1
216 217 4
216 244 1
217 218 3
217 245 5
218 219 1
218 246 5
219 220 4
219 247 2
220 221 1
220 248 1
221 222 3
221 249 1
222 223 5
222 250 3
223 224 3
223 251 4
224 252 1
225 226 1
225 253 2
226 227 5
226 254 2
227 228 5
227 255 1
228 229 2
228 256 2
229 230 4
229 257 4
230 231 3
230 258 5
231 232 1
231 259 4
232 233 5
232 260 4
233 234 1
233 261 3
234 235 1
234 262 4
235 236 1
235 263 1
236 237 3
236 264 4
237 238 2
237 265 1
238 239 3
238 266 3
239 240 3
239 267 1
240 241 5
240 268 5
241 242 1
241 269 4
242 243 3
242 270 2
243 244 2
243 271 5
244 245 1
244 272 1
245 246 1
245 273 5
246 247 3
246 274 4
247 248 5
247 275 4
248 249 4
248 276 2
249 250 4
249 277 4
250 251 2
250 278 5
251 252 5
251 279 2
252 280 5
253 254 5
253 281 4
254 255 5
254 282 3
255 256 5
255 283 5
256 257 2
256 284 4
257 258 1
257 285 5
258 259 4
258 286 5
259 260 2
259 287 3
260 261 1
260 288 3
261 262 5
261 289 5
262 263 3
262 290 4
263 264 2
263 291 3
264 265 1
264 292 2
265 266 1
265 293 4
266 267 2
266 294 2
267 268 3
267 295 1
268 269 4
268 296 5
269 270 2
269 297 1
270 271 3
270 298 1
271 272 4
271 299 1
272 273 4
272 300 1
273 274 3
273 301 5
274 275 1
274 302 3
275 276 4
275 303 5
276 277 2
276 304 2
277 278 1
277 305 1
278 279 2
278 306 4
279 280 1
279 307 1
280 308 4
281 282 3
281 309 2
282 283 5
282 310 3
283 284 4
283 311 4
284 285 4
284 312 2
285 286 1
285 313 5
286 287 3
286 314 3
287 288 1
287 315 2
288 289 4
288 316 3
289 290 1
289 317 1
290 291 1
290 318 5
291 292 1
291 319 4
292 293 2
292 320 2
293 294 4
293 321 1
294 295 2
294 322 4
295 296 2
295 323 5
296 297 2
296 324 4
297 298 4
297 325 5
298 299 4
298 326 4
299 300 5
299 327 2
300 301 1
300 328 5
301 302 5
301 329 5
302 303 4
302 330 2
303 304 2
303 331 4
304 305 4
304 332 1
305 306 4
305 333 1
306 307 3
306 334 3
307 308 4
307 335 5
308 336 2
309 310 5
309 337 2
310 311 5
310 338 4
311 312 2
311 339 4
312 313 2
312 340 1
313 314 5
313 341 3
314 315 5
314 342 1
315 316 5
315 343 5
316 317 3
316 344 4
317 318 1
317 345 3
318 319 4
318 346 1
319 320 4
319 347 4
320 321 5
320 348 1
321 322 3
321 349 1
322 323 5
322 350 4
323 324 2
323 351 5
324 325 2
324 352 3
325 326 1
325 353 3
326 327 3
326 354 2
327 328 3
327 355 5
328 329 4
328 356 5
329 330 4
329 357 1
330 331 5
330 358 2
331 332 4
331 359 5
332 333 2
332 360 4
333 334 3
333 361 2
334 335 5
334 362 4
335 336 1
335 363 1
336 364 2
337 338 5
337 365 2
338 339 4
338 366 1
339 340 4
339 367 2
340 341 1
340 368 1
341 342 3
341 369 1
342 343 1
342 370 1
343 344 4
343 371 5
344 345 1
344 372 2
345 346 3
345 373 5
346 347 5
346 374 3
347 348 4
347 375 2
348 349 4
348 376 3
349 350 1
349 377 3
350 351 1
350 378 2
351 352 4
351 379 5
352 353 2
352 380 2
353 354 2
353 381 3
354 355 1
354 382 4
355 356 5
355 383 4
356 357 2
356 384 2
357 358 4
357 385 4
358 359 3
358 386 3
359 360 1
359 387 1
360 361 1
360 388 5
361 362 1
361 389 1
362 363 4
362 390 3
363 364 2
363 391 2
364 392 1
365 366 3
365 393 5
366 367 4
366 394 5
367 368 2
367 395 4
368 369 5
368 396 5
369 370 5
369 397 1
370 371 5
370 398 1
371 372 1
371 399 2
372 373 2
372 400 2
373 374 1
373 401 2
374 375 2
374 402 4
375 376 1
375 403 2
376 377 1
376 404 1
377 378 4
377 405 4
378 379 5
378 406 3
379 380 5
379 407 4
380 381 4
380 408 1
381 382 3
381 409 1
382 383 4
382 410 4
383 384 3
383 411 1
384 385 3
384 412 5
385 386 1
385 413 3
386 387 5
386 414 2
387 388 1
387 415 4
388 389 4
388 416 2
389 390 4
389 417 2
390 391 2
390 418 5
391 392 3
391 419 5
392 420 1
393 394 5
393 421 4
394 395 1
394 422 4
395 396 4
395 423 5
396 397 3
396 424 4
397 398 2
397 425 5
398 399 3
398 426 1
399 400 2
399 427 3
400 401 4
400 428 4
401 402 2
401 429 4
402 403 5
402 430 5
403 404 1
403 431 4
404 405 5
404 432 5
405 406 2
405 433 4
406 407 2
406 434 3
407 408 3
407 435 4
408 409 4
408 436 2
409 410 1
409 437 5
410 411 4
410 438 2
411 412 2
411 439 3
412 413 5
412 440 2
413 414 1
413 441 4
414 415 2
414 442 1
415 416 4
415 443 4
416 417 2
416 444 4
417 418 1
417 445 2
418 419 5
418 446 4
419 420 3
419 447 3
420 448 1
421 422 1
421 449 3
422 423 1
422 450 3
423 424 2
423 451 5
424 425 1
424 452 2
425 426 5
425 453 4
426 427 1
426 454 5
427 428 3
427 455 1
428 429 4
428 456 3
429 430 2
429 457 3
430 431 1
430 458 1
431 432 2
431 459 2
432 433 3
432 460 4
433 434 2
433 461 1
434 435 3
434 462 4
435 436 1
435 463 2
436 437 5
436 464 2
437 438 3
437 465 4
438 439 5
438 466 5
439 440 2
439 467 5
440 441 2
440 468 3
441 442 3
441 469 1
442 443 4
442 470 5
443 444 1
443 471 2
444 445 4
444 472 2
445 446 1
445 473 2
446 447 1
446 474 2
447 448 1
447 475 5
448 476 3
449 450 1
449 477 4
450 451 4
450 478 1
451 452 2
451 479 2
452 453 1
452 480 1
453 454 4
453 481 4
454 455 5
454 482 4
455 456 5
455 483 2
456 457 1
456 484 2
457 458 4
457 485 2
458 459 3
458 486 2
459 460 1
459 487 5
460 461 3
460 488 3
461 462 3
461 489 4
462 463 4
462 490 2
463 464 2
463 491 5
464 465 5
464 492 1
465 466 2
465 493 5
466 467 4
466 494 5
467 468 4
467 495 2
468 469 3
468 496 1
469 470 1
469 497 1
470 471 3
470 498 3
471 472 5
471 499 5
472 473 5
472 500 5
473 474 4
473 501 4
474 475 5
474 502 2
475 476 5
475 503 2
476 504 5
477 478 5
477 505 4
478 479 4
478 506 2
479 480 2
479 507 4
480 481 3
480 508 4
481 482 2
481 509 1
482 483 3
482 510 5
483 484 3
483 511 4
484 485 4
484 512 2
485 486 4
485 513 2
486 487 4
486 514 1
487 488 5
487 515 3
488 489 5
488 516 2
489 490 3
489 517 5
490 491 2
490 518 4
491 492 1
491 519 3
492 493 3
492 520 1
493 494 2
493 521 5
494 495 1
494 522 5
495 496 4
495 523 2
496 497 5
496 524 4
497 498 2
497 525 5
498 499 3
498 526 2
499 500 1
499 527 1
500 501 2
500 528 3
501 502 5
501 529 1
502 503 2
502 530 5
503 504 3
503 531 5
504 532 3
505 506 3
505 533 5
506 507 3
506 534 4
507 508 1
507 535 2
508 509 2
508 536 2
509 510 5
509 537 3
510 511 1
510 538 3
511 512 4
511 539 1
512 513 2
512 540 3
513 514 3
513 541 1
514 515 4
514 542 3
515 516 5
515 543 4
516 517 2
516 544 4
517 518 2
517 545 3
518 519 2
518 546 3
519 520 1
519 547 5
520 521 5
520 548 4
521 522 5
521 549 5
522 523 1
522 550 4
523 524 1
523 551 2
524 525 1
524 552 5
525 526 2
525 553 1
526 527 1
526 554 1
527 528 2
527 555 4
528 529 4
528 556 5
529 530 5
529 557 1
530 531 1
530 558 2
531 532 4
531 559 1
532 560 1
533 534 2
533 561 2
534 535 4
534 562 1
535 536 2
535 563 3
536 537 4
536 564 5
537 538 3
537 565 5
538 539 1
538 566 5
539 540 1
539 567 1
540 541 2
540 568 4
541 542 2
541 569 3
542 543 2
542 570 5
543 544 2
543 571 2
544 545 5
544 572 5
545 546 1
545 573 5
546 547 3
546 574 3
547 548 5
547 575 5
548 549 2
548 576 5
549 550 4
549 577 5
550 551 2
550 578 5
551 552 3
551 579 2
552 553 4
552 580 4
553 554 2
553 581 4
554 555 5
554 582 5
555 556 5
555 583 5
556 557 1
556 584 5
557 558 5
557 585 2
558 559 3
558 586 1
559 560 5
559 587 5
560 588 1
561 562 2
561 589 3
562 563 5
562 590 4
563 564 2
563 591 4
564 565 1
564 592 1
565 566 3
565 593 4
566 567 2
566 594 3
567 568 5
567 595 5
568 569 4
568 596 4
569 570 3
569 597 1
570 571 4
570 598 1
571 572 3
571 599 1
572 573 1
572 600 2
573 574 5
573 601 2
574 575 3
574 602 5
575 576 2
575 603 1
576 577 5
576 604 4
577 578 2
577 605 1
578 579 5
578 606 1
579 580 2
579 607 1
580 581 3
580 608 4
581 582 5
581 609 3
582 583 2
582 610 4
583 584 3
583 611 1
584 585 4
584 612 5
585 586 1
585 613 2
586 587 2
586 614 1
587 588 4
587 615 4
588 616 4
589 590 3
589 617 3
590 591 1
590 618 1
591 592 2
591 619 3
592 593 1
592 620 3
593 594 1
593 621 4
594 595 3
594 622 4
595 596 1
595 623 2
596 597 1
596 624 5
597 598 3
597 625 4
598 599 4
598 626 5
599 600 2
599 627 2
600 601 5
600 628 2
601 602 3
601 629 5
602 603 3
602 630 4
603 604 2
603 631 2
604 605 4
604 632 4
605 606 2
605 633 1
606 607 5
606 634 4
607 608 5
607 635 4
608 609 2
608 636 5
609 610 2
609 637 4
610 611 4
610 638 2
611 612 5
611 639 1
612 613 4
612 640 5
613 614 5
613 641 2
614 615 2
614 642 2
615 616 3
615 643 4
616 644 4
617 618 5
617 645 1
618 619 2
618 646 2
619 620 4
619 647 5
620 621 3
620 648 1
621 622 1
621 649 4
622 623 2
622 650 5
623 624 2
623 651 4
624 625 1
624 652 4
625 626 4
625 653 4
626 627 1
626 654 1
627 628 1
627 655 4
628 629 5
628 656 3
629 630 2
629 657 4
630 631 2
630 658 5
631 632 5
631 659 3
632 633 3
632 660 2
633 634 2
633 661 2
634 635 3
634 662 2
635 636 4
635 663 4
636 637 1
636 664 5
637 638 2
637 665 4
638 639 3
638 666 2
639 640 2
639 667 4
640 641 1
640 668 2
641 642 2
641 669 5
642 643 5
642 670 4
643 644 3
643 671 2
644 672 3
645 646 5
645 673 5
646 647 4
646 674 2
647 648 2
647 675 5
648 649 4
648 676 2
649 650 3
649 677 2
650 651 5
650 678 1
651 652 3
651 679 1
652 653 2
652 680 3
653 654 2
653 681 3
654 655 3
654 682 3
655 656 3
655 683 3
656 657 2
656 684 4
657 658 2
657 685 3
658 659 5
658 686 3
659 660 2
659 687 2
660 661 3
660 688 1
661 662 4
661 689 3
662 663 2
662 690 3
663 664 1
663 691 2
664 665 2
664 692 2
665 666 2
665 693 4
666 667 4
666 694 5
667 668 3
667 695 3
668 669 1
668 696 3
669 670 3
669 697 3
670 671 5
670 698 4
671 672 1
671 699 3
672 700 1
673 674 2
673 701 4
674 675 2
674 702 4
675 676 3
675 703 4
676 677 1
676 704 4
677 678 4
677 705 5
678 679 1
678 706 5
679 680 2
679 707 2
680 681 1
680 708 4
681 682 4
681 709 5
682 683 5
682 710 1
683 684 4
683 711 1
684 685 1
684 712 2
685 686 3
685 713 5
686 687 3
686 714 1
687 688 3
687 715 3
688 689 3
688 716 5
689 690 2
689 717 3
690 691 2
690 718 1
691 692 3
691 719 1
692 693 4
692 720 5
693 694 1
693 721 1
694 695 2
694 722 4
695 696 2
695 723 2
696 697 1
696 724 1
697 698 1
697 725 5
698 699 3
698 726 4
699 700 3
699 727 5
700 728 5
701 702 4
701 729 2
702 703 4
702 730 5
703 704 3
703 731 1
704 705 3
704 732 5
705 706 2
705 733 5
706 707 4
706 734 2
707 708 4
707 735 4
708 709 1
708 736 5
709 710 2
709 737 3
710 711 5
710 738 5
711 712 5
711 739 4
712 713 5
712 740 5
713 714 1
713 741 4
714 715 2
714 742 1
715 716 4
715 743 3
716 717 3
716 744 2
717 718 5
717 745 1
718 719 1
718 746 4
719 720 5
719 747 3
720 721 3
720 748 4
721 722 3
721 749 5
722 723 4
722 750 2
723 724 5
723 751 2
724 725 2
724 752 4
725 726 5
725 753 4
726 727 4
726 754 5
727 728 5
727 755 5
728 756 5
729 730 4
729 757 5
730 731 3
730 758 4
731 732 2
731 759 4
732 733 3
732 760 1
733 734 2
733 761 3
734 735 4
734 762 3
735 736 4
735 763 3
736 737 2
736 764 1
737 738 5
737 765 3
738 739 5
738 766 4
739 740 3
739 767 2
740 741 2
740 768 4
741 742 5
741 769 5
742 743 2
742 770 4
743 744 3
743 771 5
744 745 1
744 772 2
745 746 1
745 773 1
746 747 1
746 774 4
747 748 4
747 775 4
748 749 5
748 776 2
749 750 2
749 777 5
750 751 5
750 778 3
751 752 4
751 779 4
752 753 4
752 780 2
753 754 2
753 781 1
754 755 5
754 782 2
755 756 2
755 783 3
756 784 2
757 758 2
758 759 2
759 760 2
760 761 2
761 762 3
762 763 5
763 764 4
764 765 2
765 766 3
766 767 2
767 768 2
768 769 2
769 770 1
770 771 5
771 772 1
772 773 2
773 774 2
774 775 4
775 776 2
776 777 4
777 778 3
778 779 1
779 780 1
780 781 5
781 782 3
782 783 3
783 784 3
1 757 5
2 758 2
3 759 5
4 760 4
5 761 1
6 762 1
7 763 1
8 764 2
9 765 2
10 766 5
11 767 5
12 768 3
13 769 3
14 770 5
15 771 2
16 772 1
17 773 4
18 774 1
19 775 4
20 776 1
21 777 5
22 778 3
23 779 1
24 780 2
25 781 5
26 782 5
27 783 3
28 784 2
1 28 4
29 56 4
57 84 4
85 112 1
113 140 2
141 168 3
169 196 5
197 224 2
225 252 4
253 280 5
281 308 5
309 336 5
337 364 1
365 392 2
393 420 3
421 448 4
449 476 3
477 504 5
505 532 3
533 560 5
561 588 1
589 616 1
617 644 3
645 672 5
673 700 5
701 728 3
729 756 5
757 784 1
